Normalized Data/p01_15_normalized_split0.vrp
NAME:p01_15_NORMALIZED_split
BEST_KNOWN: 0
COMMENT: 0
DIMENSION: 201
CAPACITY: 100
EDGE_WEIGHT_FORMAT: FUNCTION
EDGE_WEIGHT_TYPE: EXACT_2D
NODE_COORD_SECTION
1 0.00000 0.00000
2 4 2
3 4 2
4 4 2
5 4 2
6 4 2
7 31 -37
8 31 -37
9 31 -37
10 31 -37
11 31 -37
12 31 -37
13 33 -14
14 33 -14
15 33 -14
16 44 15
17 44 15
18 -17 -35
19 -17 -35
20 -17 -35
21 -17 -35
22 17 36
23 17 36
24 17 36
25 17 36
26 -30 -13
27 -30 -13
28 -30 -13
29 1 -50
30 1 -50
31 1 -50
32 1 -50
33 1 -50
34 -46 -24
35 -46 -24
36 -46 -24
37 19 -48
38 19 -48
39 19 -48
40 19 -48
41 -39 -2
42 -39 -2
43 -39 -2
44 -39 -2
45 7 11
46 7 11
47 7 11
48 7 11
49 7 11
50 7 11
51 -16 28
52 21 -8
53 21 -8
54 21 -8
55 13 -27
56 13 -27
57 -9 26
58 -9 26
59 -9 26
60 -9 26
61 47 -49
62 47 -49
63 47 -49
64 47 -49
65 47 -49
66 47 -49
67 -20 46
68 -20 46
69 14 21
70 14 21
71 14 21
72 -19 -22
73 -19 -22
74 16 -45
75 16 -45
76 16 -45
77 39 2
78 39 2
79 39 2
80 39 2
81 -2 -18
82 -2 -18
83 -2 -18
84 -2 -18
85 -2 -18
86 -4 -6
87 -4 -6
88 0 -7
89 0 -7
90 0 -7
91 0 -7
92 0 -7
93 0 -7
94 -47 33
95 -47 33
96 -47 33
97 -47 33
98 -47 33
99 31 -7
100 31 -7
101 31 -7
102 31 -7
103 31 -7
104 31 -7
105 -10 -49
106 -10 -49
107 -10 -49
108 -10 -49
109 -10 -49
110 -10 -49
111 15 -31
112 15 -31
113 15 -31
114 -17 0
115 -17 0
116 -17 0
117 -17 0
118 -17 0
119 -15 19
120 -15 19
121 14 -5
122 14 -5
123 14 -5
124 14 -5
125 14 -5
126 -15 -15
127 -15 -15
128 -15 -15
129 -15 -15
130 -16 -38
131 -16 -38
132 -16 -38
133 -16 -38
134 -16 -38
135 -16 -38
136 22 -4
137 22 -4
138 4 -3
139 4 -3
140 4 -3
141 4 -3
142 14 -46
143 14 -46
144 -8 -23
145 -8 -23
146 -8 -23
147 -8 -23
148 -8 -23
149 -8 -23
150 -12 6
151 -12 6
152 -12 6
153 -12 6
154 26 -38
155 26 -38
156 26 -38
157 26 -38
158 4 -21
159 4 -21
160 4 -21
161 4 -21
162 4 -21
163 4 -21
164 12 33
165 12 33
166 12 33
167 12 33
168 12 33
169 12 33
170 -26 -2
171 -26 -2
172 -26 -2
173 -26 -2
174 -26 -2
175 -49 28
176 -49 28
177 -49 28
178 -11 15
179 -11 15
180 -11 15
181 -11 15
182 -11 15
183 -38 -2
184 -38 -2
185 -38 -2
186 -38 -2
187 -38 -2
188 -35 -13
189 -35 -13
190 -35 -13
191 -26 -22
192 -26 -22
193 -26 -22
194 -26 -22
195 13 -49
196 13 -49
197 13 -49
198 13 -49
199 24 24
200 24 24
201 24 24
DEMAND_SECTION
1 0
2 20
3 10
4 1
5 1
6 1
7 10
8 5
9 1
10 1
11 1
12 1
13 20
14 20
15 10
16 20
17 5
18 20
19 10
20 5
21 1
22 20
23 10
24 5
25 1
26 10
27 5
28 1
29 20
30 20
31 5
32 1
33 1
34 20
35 5
36 1
37 20
38 1
39 1
40 1
41 20
42 20
43 5
44 1
45 20
46 10
47 1
48 1
49 1
50 1
51 20
52 20
53 1
54 1
55 20
56 1
57 10
58 1
59 1
60 1
61 20
62 20
63 1
64 1
65 1
66 1
67 20
68 5
69 10
70 5
71 1
72 20
73 5
74 10
75 5
76 1
77 20
78 10
79 1
80 1
81 20
82 5
83 1
84 1
85 1
86 20
87 20
88 20
89 20
90 1
91 1
92 1
93 1
94 20
95 10
96 5
97 1
98 1
99 20
100 20
101 1
102 1
103 1
104 1
105 20
106 20
107 5
108 1
109 1
110 1
111 20
112 10
113 1
114 20
115 20
116 5
117 1
118 1
119 20
120 10
121 20
122 10
123 1
124 1
125 1
126 20
127 20
128 5
129 1
130 20
131 20
132 5
133 1
134 1
135 1
136 20
137 1
138 20
139 1
140 1
141 1
142 20
143 20
144 20
145 5
146 1
147 1
148 1
149 1
150 20
151 5
152 1
153 1
154 20
155 10
156 1
157 1
158 20
159 20
160 5
161 1
162 1
163 1
164 20
165 20
166 5
167 1
168 1
169 1
170 20
171 20
172 1
173 1
174 1
175 20
176 10
177 1
178 20
179 20
180 1
181 1
182 1
183 10
184 5
185 1
186 1
187 1
188 10
189 5
190 1
191 20
192 20
193 1
194 1
195 10
196 5
197 1
198 1
199 20
200 10
201 1
DEPOT_SECTION
1
-1
EOF