Normalized Data/p01_15_normalized_split0.sol
200 -3 2 1 5 4 -6 11 10 9 7 8 60 65 62 61 64 63 156 155 153 154 -14 12 13 100 102 101 98 103 99 -19 18 20 17 134 131 129 130 132 133 146 145 144 147 148 -27 26 25 187 188 189 40 43 42 41 184 185 182 186 183 -32 28 30 29 31 104 109 105 108 106 107 -34 33 35 192 191 193 190 72 71 -48 47 49 46 45 44 57 59 58 56 50 118 119 -55 54 111 112 110 157 159 158 162 161 160 -66 67 96 94 95 97 93 176 175 174 -69 70 68 21 23 24 22 164 166 167 163 168 165 -75 74 73 36 39 38 37 197 194 196 195 141 142 -77 76 79 78 15 16 200 198 199 -83 84 82 81 80 143 127 125 126 128 -85 86 88 91 89 90 92 87 -115 114 117 116 113 170 169 172 171 173 -135 136 53 52 51 122 124 121 123 120 137 138 139 140 -149 151 150 152 177 179 178 180 181 0 





OBJ=
1419.440
BEST_KNOWN=
0.000